56
740 772 1018 726 859 723 920 818 893 767 928 754 835 865 1030 614 967 839 863 1053 823 821 880 851 856 810 842 1029 949 672 967 745 904 800 1038 892 900 865 883 861 960 648 828 953 834 990 784 755 738 1000 858 826 878 925 894 874 
13855
323 999 628 160 357 20 866 952 753 355 376 613 88 968 627 653 330 56 839 961 961 125 807 722 503 793 771 585 651 507 563 321 23 280 199 811 125 492 267 947 714 336 182 669 243 987 560 854 149 495 97 842 168 842 412 540 